
%FILE DATA:	Soccer Computational Problem for MiniZinc Models	%
%AUTHOR:	Jack Wall	%
%CONTACT:  	116397063@umail.ucc.ie			%
%LAST UPDATE:	01/29/2020, 10:18:01						%
%DESCRIPTION: 	24 games played with 32 games left				%

n=8; %number of teams

%Games to play
games=[|5,7|7,8|7,3|6,1|2,1|1,7|2,8|5,1|2,6|7,5|6,8|6,5|6,4|4,3|3,5|4,2|7,1|8,2|7,6|2,5|1,6|3,8|8,1|2,7|5,4|8,5|4,8|1,2|5,8|3,1|4,7|7,4|];

%Initial points
iPoints=[6,10,15,9,3,9,5,8];

%POSITION CONSTRAINTS
% [|teamID, operator, position|...]
% operators index:
%  1 for =  operator
%  2 for >  operator
%  3 for >= operator
%  4 for <  operator
%  5 for <= operator
positionConstraints=[|3,4,2|8,4,3|6,4,4|];